n = 8;
m = 12;
a = [| 8, 2, 6, 3, 11, 9, 1, 3
     | 12, 2, 1, 6, 1, 0, 4, 12
     | 8, 2, 5, 5, 4, 2, 10, 6
     | 5, 10, 4, 7, 9, 8, 2, 3
     | 9, 8, 3, 10, 8, 2, 0, 10
     | 0, 9, 0, 0, 0, 6, 9, 0
     | 7, 0, 6, 0, 5, 0, 0, 3
     | 1, 9, 7, 8, 11, 11, 0, 0|];
s = [ 25, 21, 26, 15, 10, 20, 21, 30, 31, 15, 12, 9];
